c "random instance"
p edges 150 2192
e 1 2
e 1 8
e 1 12
e 1 13
e 1 15
e 1 16
e 1 20
e 1 22
e 1 25
e 1 32
e 1 33
e 1 52
e 1 54
e 1 64
e 1 66
e 1 74
e 1 76
e 1 82
e 1 85
e 1 90
e 1 93
e 1 97
e 1 100
e 1 108
e 1 111
e 1 115
e 1 120
e 1 127
e 1 136
e 1 139
e 1 142
e 1 143
e 1 145
e 2 3
e 2 15
e 2 17
e 2 18
e 2 22
e 2 24
e 2 29
e 2 30
e 2 33
e 2 34
e 2 35
e 2 39
e 2 49
e 2 64
e 2 65
e 2 74
e 2 78
e 2 79
e 2 83
e 2 86
e 2 98
e 2 110
e 2 114
e 2 118
e 2 121
e 2 123
e 2 127
e 2 129
e 2 134
e 2 135
e 2 136
e 2 140
e 2 146
e 3 8
e 3 13
e 3 15
e 3 21
e 3 24
e 3 43
e 3 50
e 3 53
e 3 54
e 3 56
e 3 59
e 3 63
e 3 67
e 3 71
e 3 81
e 3 82
e 3 84
e 3 86
e 3 88
e 3 89
e 3 98
e 3 104
e 3 109
e 3 113
e 3 124
e 3 129
e 3 136
e 3 139
e 3 140
e 3 143
e 3 145
e 4 8
e 4 13
e 4 17
e 4 18
e 4 30
e 4 31
e 4 35
e 4 38
e 4 40
e 4 56
e 4 60
e 4 64
e 4 80
e 4 83
e 4 84
e 4 98
e 4 108
e 4 110
e 4 113
e 4 114
e 4 116
e 4 123
e 4 124
e 4 126
e 4 128
e 4 132
e 4 137
e 4 142
e 4 144
e 4 148
e 4 149
e 5 8
e 5 14
e 5 18
e 5 26
e 5 29
e 5 30
e 5 32
e 5 36
e 5 37
e 5 38
e 5 39
e 5 42
e 5 43
e 5 60
e 5 65
e 5 68
e 5 70
e 5 80
e 5 86
e 5 93
e 5 94
e 5 97
e 5 98
e 5 103
e 5 105
e 5 108
e 5 114
e 5 115
e 5 116
e 5 118
e 5 129
e 5 132
e 5 136
e 5 147
e 6 18
e 6 19
e 6 21
e 6 31
e 6 34
e 6 38
e 6 49
e 6 52
e 6 67
e 6 69
e 6 72
e 6 73
e 6 76
e 6 89
e 6 93
e 6 97
e 6 105
e 6 109
e 6 124
e 6 140
e 6 145
e 6 149
e 7 10
e 7 11
e 7 13
e 7 15
e 7 17
e 7 19
e 7 22
e 7 25
e 7 33
e 7 34
e 7 38
e 7 40
e 7 50
e 7 51
e 7 60
e 7 70
e 7 84
e 7 85
e 7 99
e 7 103
e 7 104
e 7 107
e 7 113
e 7 121
e 7 123
e 7 127
e 7 137
e 7 146
e 8 10
e 8 15
e 8 17
e 8 22
e 8 24
e 8 28
e 8 30
e 8 34
e 8 41
e 8 43
e 8 44
e 8 62
e 8 67
e 8 68
e 8 84
e 8 94
e 8 95
e 8 96
e 8 102
e 8 105
e 8 106
e 8 115
e 8 117
e 8 118
e 8 119
e 8 125
e 8 138
e 8 149
e 9 12
e 9 18
e 9 19
e 9 22
e 9 25
e 9 34
e 9 36
e 9 40
e 9 44
e 9 49
e 9 53
e 9 54
e 9 57
e 9 59
e 9 60
e 9 62
e 9 66
e 9 67
e 9 68
e 9 72
e 9 77
e 9 82
e 9 84
e 9 92
e 9 93
e 9 107
e 9 111
e 9 117
e 9 123
e 9 124
e 9 129
e 9 136
e 9 138
e 9 148
e 10 11
e 10 13
e 10 17
e 10 19
e 10 21
e 10 29
e 10 30
e 10 32
e 10 35
e 10 38
e 10 41
e 10 43
e 10 55
e 10 64
e 10 65
e 10 68
e 10 73
e 10 85
e 10 88
e 10 103
e 10 106
e 10 110
e 10 118
e 10 123
e 10 141
e 10 146
e 11 14
e 11 16
e 11 20
e 11 28
e 11 30
e 11 37
e 11 59
e 11 63
e 11 65
e 11 83
e 11 87
e 11 93
e 11 95
e 11 96
e 11 106
e 11 118
e 11 123
e 11 124
e 11 138
e 12 27
e 12 35
e 12 40
e 12 42
e 12 54
e 12 56
e 12 58
e 12 73
e 12 79
e 12 88
e 12 89
e 12 91
e 12 96
e 12 103
e 12 107
e 12 127
e 12 128
e 12 131
e 12 136
e 12 139
e 12 142
e 12 145
e 12 146
e 12 148
e 13 37
e 13 39
e 13 47
e 13 53
e 13 75
e 13 76
e 13 77
e 13 84
e 13 88
e 13 89
e 13 91
e 13 94
e 13 98
e 13 120
e 13 121
e 13 124
e 13 130
e 13 139
e 13 140
e 13 147
e 14 16
e 14 29
e 14 37
e 14 38
e 14 39
e 14 40
e 14 41
e 14 47
e 14 49
e 14 53
e 14 54
e 14 60
e 14 62
e 14 65
e 14 70
e 14 75
e 14 76
e 14 79
e 14 83
e 14 89
e 14 101
e 14 117
e 14 120
e 14 121
e 14 128
e 14 138
e 14 143
e 15 30
e 15 36
e 15 37
e 15 41
e 15 44
e 15 50
e 15 58
e 15 59
e 15 62
e 15 72
e 15 82
e 15 84
e 15 86
e 15 88
e 15 91
e 15 98
e 15 100
e 15 101
e 15 103
e 15 108
e 15 109
e 15 123
e 15 126
e 15 129
e 15 131
e 15 137
e 15 138
e 15 141
e 15 144
e 16 17
e 16 18
e 16 21
e 16 24
e 16 27
e 16 31
e 16 32
e 16 35
e 16 43
e 16 46
e 16 52
e 16 55
e 16 58
e 16 59
e 16 60
e 16 62
e 16 66
e 16 67
e 16 73
e 16 81
e 16 84
e 16 85
e 16 88
e 16 90
e 16 93
e 16 94
e 16 95
e 16 98
e 16 101
e 16 106
e 16 112
e 16 113
e 16 115
e 16 122
e 16 127
e 16 133
e 16 139
e 16 141
e 16 143
e 16 144
e 16 146
e 16 147
e 17 22
e 17 25
e 17 26
e 17 31
e 17 33
e 17 34
e 17 41
e 17 42
e 17 50
e 17 61
e 17 62
e 17 63
e 17 65
e 17 78
e 17 79
e 17 89
e 17 92
e 17 99
e 17 104
e 17 108
e 17 120
e 17 122
e 17 126
e 17 130
e 17 131
e 17 133
e 17 134
e 17 136
e 17 137
e 17 138
e 17 141
e 17 142
e 18 21
e 18 23
e 18 27
e 18 32
e 18 37
e 18 45
e 18 50
e 18 65
e 18 69
e 18 82
e 18 91
e 18 95
e 18 97
e 18 99
e 18 100
e 18 101
e 18 105
e 18 112
e 18 113
e 18 114
e 18 119
e 18 136
e 18 141
e 18 142
e 18 143
e 18 144
e 18 150
e 19 24
e 19 28
e 19 29
e 19 43
e 19 45
e 19 48
e 19 52
e 19 59
e 19 62
e 19 97
e 19 100
e 19 102
e 19 104
e 19 105
e 19 110
e 19 111
e 19 112
e 19 113
e 19 122
e 19 123
e 19 129
e 19 136
e 19 148
e 19 150
e 20 21
e 20 27
e 20 38
e 20 40
e 20 50
e 20 56
e 20 62
e 20 63
e 20 69
e 20 74
e 20 76
e 20 85
e 20 94
e 20 98
e 20 109
e 20 113
e 20 116
e 20 124
e 20 125
e 20 132
e 20 139
e 20 147
e 21 33
e 21 34
e 21 36
e 21 42
e 21 45
e 21 48
e 21 52
e 21 56
e 21 63
e 21 73
e 21 77
e 21 81
e 21 96
e 21 97
e 21 99
e 21 101
e 21 102
e 21 114
e 21 115
e 21 116
e 21 122
e 21 125
e 21 142
e 21 147
e 21 150
e 22 28
e 22 33
e 22 40
e 22 42
e 22 45
e 22 46
e 22 47
e 22 49
e 22 53
e 22 58
e 22 61
e 22 65
e 22 68
e 22 69
e 22 75
e 22 82
e 22 89
e 22 90
e 22 91
e 22 92
e 22 115
e 22 123
e 22 131
e 22 132
e 22 138
e 22 140
e 22 143
e 22 145
e 22 146
e 22 148
e 22 149
e 23 26
e 23 30
e 23 36
e 23 42
e 23 50
e 23 53
e 23 56
e 23 64
e 23 65
e 23 67
e 23 68
e 23 69
e 23 70
e 23 71
e 23 74
e 23 78
e 23 79
e 23 81
e 23 84
e 23 85
e 23 86
e 23 89
e 23 92
e 23 102
e 23 115
e 23 117
e 23 125
e 23 127
e 23 131
e 23 133
e 23 137
e 23 140
e 23 148
e 24 26
e 24 36
e 24 42
e 24 68
e 24 69
e 24 72
e 24 77
e 24 79
e 24 81
e 24 83
e 24 84
e 24 88
e 24 89
e 24 90
e 24 94
e 24 99
e 24 103
e 24 108
e 24 112
e 24 119
e 24 132
e 24 142
e 24 149
e 24 150
e 25 28
e 25 43
e 25 68
e 25 69
e 25 70
e 25 72
e 25 73
e 25 83
e 25 85
e 25 89
e 25 101
e 25 102
e 25 109
e 25 115
e 25 116
e 25 117
e 25 130
e 25 134
e 25 138
e 25 141
e 25 143
e 26 31
e 26 36
e 26 46
e 26 50
e 26 55
e 26 58
e 26 59
e 26 61
e 26 63
e 26 67
e 26 77
e 26 79
e 26 96
e 26 97
e 26 102
e 26 105
e 26 106
e 26 120
e 26 122
e 26 124
e 26 127
e 26 128
e 26 129
e 26 138
e 26 141
e 26 143
e 26 146
e 27 28
e 27 41
e 27 44
e 27 46
e 27 53
e 27 58
e 27 61
e 27 67
e 27 75
e 27 90
e 27 91
e 27 98
e 27 105
e 27 108
e 27 111
e 27 114
e 27 117
e 27 122
e 27 124
e 27 131
e 27 135
e 27 139
e 28 29
e 28 33
e 28 41
e 28 51
e 28 65
e 28 66
e 28 67
e 28 72
e 28 74
e 28 79
e 28 95
e 28 96
e 28 105
e 28 106
e 28 110
e 28 114
e 28 116
e 28 118
e 28 130
e 28 138
e 28 143
e 29 34
e 29 40
e 29 44
e 29 49
e 29 54
e 29 60
e 29 61
e 29 62
e 29 63
e 29 68
e 29 70
e 29 71
e 29 72
e 29 95
e 29 102
e 29 107
e 29 115
e 29 116
e 29 117
e 29 125
e 29 129
e 29 130
e 29 132
e 29 136
e 29 146
e 29 147
e 30 33
e 30 34
e 30 35
e 30 37
e 30 48
e 30 51
e 30 55
e 30 61
e 30 62
e 30 63
e 30 64
e 30 66
e 30 68
e 30 71
e 30 77
e 30 81
e 30 83
e 30 85
e 30 87
e 30 94
e 30 99
e 30 100
e 30 105
e 30 116
e 30 133
e 30 145
e 31 34
e 31 38
e 31 39
e 31 43
e 31 53
e 31 56
e 31 61
e 31 68
e 31 80
e 31 86
e 31 88
e 31 94
e 31 97
e 31 99
e 31 110
e 31 112
e 31 114
e 31 115
e 31 128
e 31 134
e 31 136
e 31 137
e 31 142
e 31 144
e 31 145
e 31 146
e 31 147
e 31 149
e 32 35
e 32 53
e 32 56
e 32 65
e 32 72
e 32 73
e 32 76
e 32 77
e 32 86
e 32 87
e 32 101
e 32 134
e 32 139
e 32 142
e 32 145
e 33 36
e 33 38
e 33 39
e 33 41
e 33 55
e 33 66
e 33 69
e 33 73
e 33 77
e 33 81
e 33 83
e 33 92
e 33 112
e 33 115
e 33 122
e 33 134
e 33 136
e 33 137
e 33 143
e 34 39
e 34 41
e 34 50
e 34 54
e 34 59
e 34 88
e 34 91
e 34 96
e 34 101
e 34 105
e 34 114
e 34 116
e 34 127
e 34 129
e 34 135
e 34 139
e 34 149
e 35 44
e 35 48
e 35 51
e 35 59
e 35 62
e 35 63
e 35 65
e 35 67
e 35 79
e 35 81
e 35 85
e 35 89
e 35 91
e 35 95
e 35 97
e 35 99
e 35 102
e 35 106
e 35 109
e 35 118
e 35 119
e 35 127
e 35 140
e 35 144
e 35 146
e 35 150
e 36 50
e 36 61
e 36 63
e 36 64
e 36 93
e 36 99
e 36 102
e 36 108
e 36 127
e 36 131
e 36 134
e 36 138
e 36 143
e 36 144
e 36 145
e 36 148
e 37 39
e 37 45
e 37 50
e 37 61
e 37 86
e 37 88
e 37 89
e 37 93
e 37 96
e 37 99
e 37 107
e 37 111
e 37 117
e 37 119
e 37 125
e 37 126
e 37 128
e 37 136
e 37 145
e 37 148
e 38 42
e 38 47
e 38 50
e 38 55
e 38 56
e 38 58
e 38 62
e 38 63
e 38 64
e 38 73
e 38 75
e 38 89
e 38 99
e 38 107
e 38 116
e 38 126
e 38 135
e 38 148
e 38 150
e 39 40
e 39 43
e 39 44
e 39 47
e 39 52
e 39 56
e 39 60
e 39 61
e 39 79
e 39 80
e 39 85
e 39 89
e 39 95
e 39 108
e 39 113
e 39 116
e 39 117
e 39 123
e 39 124
e 39 130
e 39 137
e 39 143
e 40 41
e 40 51
e 40 53
e 40 55
e 40 59
e 40 62
e 40 74
e 40 83
e 40 89
e 40 96
e 40 98
e 40 101
e 40 105
e 40 107
e 40 122
e 40 124
e 40 138
e 40 150
e 41 46
e 41 55
e 41 59
e 41 63
e 41 65
e 41 67
e 41 83
e 41 88
e 41 93
e 41 96
e 41 103
e 41 105
e 41 107
e 41 118
e 41 121
e 41 132
e 41 136
e 41 139
e 42 47
e 42 49
e 42 56
e 42 61
e 42 64
e 42 69
e 42 70
e 42 71
e 42 79
e 42 109
e 42 114
e 42 116
e 42 118
e 42 120
e 42 123
e 42 124
e 42 125
e 42 130
e 43 44
e 43 46
e 43 49
e 43 54
e 43 66
e 43 70
e 43 72
e 43 77
e 43 78
e 43 87
e 43 88
e 43 93
e 43 94
e 43 96
e 43 99
e 43 101
e 43 103
e 43 119
e 43 131
e 43 132
e 43 134
e 43 136
e 43 137
e 43 142
e 43 145
e 43 148
e 44 54
e 44 72
e 44 81
e 44 87
e 44 95
e 44 97
e 44 98
e 44 114
e 44 115
e 44 120
e 44 121
e 44 126
e 44 131
e 44 133
e 44 145
e 44 150
e 45 46
e 45 47
e 45 48
e 45 49
e 45 55
e 45 57
e 45 58
e 45 63
e 45 65
e 45 66
e 45 67
e 45 70
e 45 71
e 45 83
e 45 86
e 45 92
e 45 93
e 45 100
e 45 111
e 45 115
e 45 120
e 45 126
e 45 127
e 45 129
e 45 140
e 45 142
e 46 50
e 46 52
e 46 65
e 46 70
e 46 73
e 46 77
e 46 95
e 46 99
e 46 105
e 46 106
e 46 123
e 46 125
e 46 126
e 46 131
e 47 50
e 47 54
e 47 55
e 47 62
e 47 63
e 47 70
e 47 72
e 47 74
e 47 77
e 47 78
e 47 86
e 47 89
e 47 90
e 47 92
e 47 98
e 47 121
e 47 126
e 47 132
e 47 145
e 48 50
e 48 51
e 48 64
e 48 66
e 48 77
e 48 81
e 48 82
e 48 83
e 48 91
e 48 94
e 48 99
e 48 102
e 48 105
e 48 115
e 48 126
e 48 133
e 48 136
e 48 139
e 48 140
e 48 147
e 48 148
e 48 149
e 49 60
e 49 63
e 49 67
e 49 69
e 49 70
e 49 71
e 49 76
e 49 77
e 49 81
e 49 90
e 49 92
e 49 93
e 49 98
e 49 107
e 49 116
e 49 121
e 49 122
e 49 137
e 49 146
e 49 147
e 49 148
e 50 56
e 50 59
e 50 60
e 50 61
e 50 63
e 50 65
e 50 80
e 50 91
e 50 95
e 50 101
e 50 103
e 50 105
e 50 106
e 50 108
e 50 117
e 50 121
e 50 122
e 50 150
e 51 52
e 51 54
e 51 57
e 51 68
e 51 78
e 51 96
e 51 110
e 51 111
e 51 113
e 51 114
e 51 125
e 51 130
e 51 133
e 51 141
e 51 145
e 52 54
e 52 58
e 52 66
e 52 67
e 52 68
e 52 74
e 52 77
e 52 79
e 52 83
e 52 87
e 52 90
e 52 92
e 52 97
e 52 99
e 52 107
e 52 120
e 52 121
e 52 142
e 53 67
e 53 69
e 53 73
e 53 81
e 53 85
e 53 90
e 53 95
e 53 98
e 53 103
e 53 107
e 53 116
e 53 118
e 53 119
e 53 120
e 53 125
e 53 136
e 53 139
e 53 141
e 54 56
e 54 63
e 54 65
e 54 67
e 54 68
e 54 83
e 54 98
e 54 99
e 54 107
e 54 117
e 54 120
e 54 121
e 54 124
e 54 136
e 54 146
e 55 59
e 55 61
e 55 63
e 55 65
e 55 66
e 55 72
e 55 77
e 55 78
e 55 84
e 55 85
e 55 97
e 55 100
e 55 109
e 55 118
e 55 119
e 55 120
e 55 123
e 55 124
e 55 128
e 55 132
e 55 136
e 55 139
e 55 149
e 56 58
e 56 68
e 56 75
e 56 88
e 56 93
e 56 95
e 56 97
e 56 117
e 56 133
e 56 134
e 56 138
e 56 140
e 56 141
e 57 61
e 57 66
e 57 67
e 57 73
e 57 74
e 57 80
e 57 81
e 57 82
e 57 87
e 57 93
e 57 96
e 57 97
e 57 100
e 57 106
e 57 107
e 57 110
e 57 127
e 57 128
e 57 138
e 57 139
e 58 62
e 58 65
e 58 71
e 58 73
e 58 78
e 58 84
e 58 97
e 58 103
e 58 118
e 58 132
e 58 133
e 58 141
e 59 64
e 59 66
e 59 70
e 59 72
e 59 73
e 59 75
e 59 79
e 59 82
e 59 95
e 59 111
e 59 114
e 59 115
e 59 121
e 59 123
e 59 124
e 59 126
e 59 131
e 59 133
e 59 136
e 59 137
e 59 145
e 59 149
e 59 150
e 60 62
e 60 68
e 60 73
e 60 77
e 60 82
e 60 83
e 60 84
e 60 87
e 60 90
e 60 100
e 60 101
e 60 110
e 60 111
e 60 121
e 60 125
e 60 126
e 60 141
e 60 144
e 61 67
e 61 77
e 61 80
e 61 81
e 61 88
e 61 93
e 61 99
e 61 100
e 61 101
e 61 102
e 61 103
e 61 107
e 61 109
e 61 116
e 61 118
e 61 119
e 61 121
e 61 130
e 61 135
e 61 138
e 61 140
e 62 69
e 62 70
e 62 71
e 62 76
e 62 83
e 62 85
e 62 97
e 62 99
e 62 103
e 62 107
e 62 120
e 62 127
e 62 134
e 62 136
e 62 138
e 62 140
e 62 147
e 63 66
e 63 69
e 63 70
e 63 76
e 63 81
e 63 83
e 63 85
e 63 91
e 63 93
e 63 101
e 63 106
e 63 108
e 63 114
e 63 119
e 63 126
e 63 127
e 63 129
e 63 134
e 63 135
e 63 139
e 63 143
e 63 147
e 63 150
e 64 73
e 64 74
e 64 88
e 64 89
e 64 90
e 64 92
e 64 93
e 64 94
e 64 97
e 64 99
e 64 103
e 64 107
e 64 114
e 64 118
e 64 123
e 64 125
e 64 126
e 64 130
e 64 141
e 65 67
e 65 75
e 65 84
e 65 89
e 65 90
e 65 94
e 65 95
e 65 96
e 65 98
e 65 101
e 65 105
e 65 110
e 65 111
e 65 112
e 65 115
e 65 117
e 65 123
e 65 131
e 65 140
e 65 144
e 65 145
e 66 75
e 66 76
e 66 78
e 66 82
e 66 84
e 66 89
e 66 104
e 66 111
e 66 113
e 66 120
e 66 124
e 66 126
e 66 128
e 66 130
e 66 135
e 66 137
e 66 141
e 66 150
e 67 70
e 67 73
e 67 80
e 67 81
e 67 85
e 67 91
e 67 100
e 67 101
e 67 104
e 67 108
e 67 109
e 67 111
e 67 113
e 67 114
e 67 118
e 67 122
e 67 127
e 67 128
e 67 132
e 67 134
e 67 138
e 67 140
e 67 143
e 67 145
e 67 147
e 68 69
e 68 79
e 68 80
e 68 87
e 68 95
e 68 100
e 68 110
e 68 112
e 68 130
e 68 136
e 68 139
e 69 76
e 69 79
e 69 105
e 69 107
e 69 119
e 69 120
e 69 128
e 69 139
e 69 140
e 69 144
e 69 145
e 69 149
e 70 76
e 70 91
e 70 96
e 70 97
e 70 109
e 70 110
e 70 115
e 70 116
e 70 136
e 70 138
e 70 145
e 70 146
e 70 150
e 71 73
e 71 88
e 71 91
e 71 93
e 71 95
e 71 104
e 71 106
e 71 110
e 71 112
e 71 114
e 71 116
e 71 119
e 71 127
e 71 133
e 71 141
e 71 145
e 72 77
e 72 89
e 72 90
e 72 92
e 72 93
e 72 98
e 72 114
e 72 116
e 72 118
e 72 124
e 72 133
e 72 134
e 72 135
e 72 139
e 72 141
e 72 150
e 73 74
e 73 77
e 73 82
e 73 84
e 73 85
e 73 90
e 73 96
e 73 101
e 73 106
e 73 115
e 73 117
e 73 120
e 73 123
e 73 127
e 73 130
e 73 134
e 73 140
e 73 143
e 73 145
e 73 146
e 74 76
e 74 80
e 74 81
e 74 83
e 74 95
e 74 106
e 74 107
e 74 111
e 74 112
e 74 114
e 74 120
e 74 122
e 74 130
e 74 132
e 74 138
e 74 140
e 74 143
e 74 145
e 74 147
e 75 76
e 75 82
e 75 83
e 75 84
e 75 88
e 75 96
e 75 97
e 75 100
e 75 101
e 75 102
e 75 103
e 75 108
e 75 110
e 75 118
e 75 120
e 75 121
e 75 131
e 75 133
e 75 144
e 76 82
e 76 89
e 76 91
e 76 94
e 76 101
e 76 103
e 76 110
e 76 119
e 76 126
e 76 130
e 76 131
e 76 132
e 76 137
e 76 141
e 77 78
e 77 79
e 77 80
e 77 89
e 77 95
e 77 101
e 77 104
e 77 106
e 77 108
e 77 114
e 77 118
e 77 122
e 77 123
e 77 124
e 77 125
e 77 126
e 77 132
e 77 134
e 77 137
e 77 139
e 77 144
e 77 146
e 78 79
e 78 82
e 78 86
e 78 99
e 78 106
e 78 112
e 78 113
e 78 115
e 78 119
e 78 122
e 78 128
e 78 129
e 78 136
e 78 137
e 78 148
e 78 149
e 79 95
e 79 96
e 79 100
e 79 107
e 79 113
e 79 142
e 79 146
e 80 86
e 80 87
e 80 90
e 80 92
e 80 93
e 80 94
e 80 96
e 80 97
e 80 99
e 80 106
e 80 115
e 80 122
e 80 139
e 80 140
e 80 141
e 80 142
e 80 143
e 80 146
e 80 150
e 81 89
e 81 91
e 81 92
e 81 103
e 81 110
e 81 112
e 81 121
e 81 122
e 81 125
e 81 128
e 81 130
e 81 134
e 81 143
e 82 85
e 82 93
e 82 102
e 82 130
e 82 136
e 82 146
e 83 91
e 83 95
e 83 96
e 83 97
e 83 101
e 83 106
e 83 114
e 83 118
e 83 122
e 83 128
e 83 132
e 83 135
e 84 85
e 84 87
e 84 92
e 84 93
e 84 98
e 84 102
e 84 109
e 84 110
e 84 113
e 84 115
e 84 120
e 84 124
e 84 125
e 84 126
e 84 130
e 84 134
e 84 140
e 85 86
e 85 88
e 85 95
e 85 110
e 85 111
e 85 118
e 85 130
e 85 135
e 85 140
e 85 149
e 86 91
e 86 96
e 86 98
e 86 101
e 86 107
e 86 108
e 86 109
e 86 111
e 86 112
e 86 114
e 86 117
e 86 141
e 86 144
e 86 150
e 87 89
e 87 104
e 87 114
e 87 116
e 87 132
e 87 137
e 87 139
e 88 109
e 88 113
e 88 115
e 88 118
e 88 130
e 88 131
e 88 137
e 88 141
e 88 143
e 88 147
e 88 148
e 89 92
e 89 106
e 89 108
e 89 109
e 89 127
e 89 132
e 89 134
e 89 140
e 89 141
e 89 145
e 89 148
e 90 94
e 90 98
e 90 105
e 90 120
e 90 128
e 90 131
e 90 135
e 90 142
e 90 145
e 90 149
e 91 98
e 91 99
e 91 101
e 91 115
e 91 125
e 91 126
e 91 134
e 91 141
e 91 142
e 91 145
e 91 146
e 91 148
e 92 95
e 92 97
e 92 104
e 92 108
e 92 110
e 92 112
e 92 114
e 92 124
e 92 125
e 92 129
e 92 130
e 92 140
e 92 149
e 93 94
e 93 100
e 93 106
e 93 116
e 93 120
e 93 131
e 93 135
e 93 138
e 93 139
e 93 149
e 94 98
e 94 101
e 94 102
e 94 112
e 94 114
e 94 116
e 94 123
e 94 128
e 94 133
e 94 143
e 94 144
e 94 145
e 95 97
e 95 102
e 95 103
e 95 105
e 95 108
e 95 112
e 95 118
e 95 120
e 95 123
e 95 130
e 95 131
e 95 136
e 95 144
e 96 104
e 96 119
e 96 121
e 96 125
e 96 135
e 96 138
e 97 99
e 97 100
e 97 102
e 97 105
e 97 106
e 97 107
e 97 110
e 97 123
e 97 142
e 98 100
e 98 118
e 98 120
e 98 124
e 98 125
e 98 126
e 98 132
e 98 140
e 98 146
e 99 102
e 99 124
e 99 133
e 99 142
e 100 108
e 100 112
e 100 128
e 100 130
e 100 132
e 100 141
e 100 150
e 101 110
e 101 114
e 101 116
e 101 133
e 101 135
e 101 136
e 101 137
e 101 141
e 101 146
e 101 150
e 102 106
e 102 107
e 102 111
e 102 112
e 102 116
e 102 137
e 102 143
e 102 147
e 103 110
e 103 111
e 103 120
e 103 124
e 103 129
e 103 140
e 103 148
e 103 150
e 104 112
e 104 123
e 104 124
e 104 132
e 104 136
e 104 139
e 105 106
e 105 107
e 105 109
e 105 110
e 105 112
e 105 113
e 105 114
e 105 122
e 105 129
e 105 131
e 106 113
e 106 133
e 106 135
e 106 140
e 106 142
e 107 108
e 107 115
e 107 120
e 107 122
e 107 135
e 107 138
e 107 139
e 107 142
e 107 143
e 107 145
e 107 150
e 108 109
e 108 111
e 108 113
e 108 125
e 108 127
e 108 130
e 108 131
e 108 134
e 108 135
e 108 141
e 108 149
e 109 113
e 109 114
e 109 117
e 109 128
e 109 141
e 109 147
e 109 150
e 110 114
e 110 118
e 110 124
e 110 126
e 110 129
e 110 132
e 110 133
e 110 135
e 110 138
e 110 149
e 111 115
e 111 116
e 111 117
e 111 141
e 111 145
e 111 148
e 111 149
e 112 113
e 112 125
e 112 128
e 112 135
e 112 136
e 112 139
e 112 141
e 113 116
e 113 124
e 113 131
e 113 134
e 113 136
e 113 138
e 113 139
e 113 147
e 113 148
e 113 150
e 114 116
e 114 127
e 114 130
e 114 136
e 114 145
e 115 116
e 115 119
e 115 130
e 115 131
e 115 140
e 115 142
e 115 145
e 115 148
e 116 120
e 116 122
e 116 127
e 116 137
e 116 142
e 116 150
e 117 124
e 117 129
e 117 130
e 117 132
e 117 138
e 117 143
e 117 145
e 118 122
e 118 123
e 118 132
e 118 133
e 118 138
e 118 141
e 119 128
e 119 136
e 119 140
e 119 141
e 119 147
e 120 128
e 120 134
e 120 136
e 120 140
e 120 141
e 120 148
e 120 149
e 121 126
e 121 135
e 121 137
e 121 138
e 121 140
e 121 141
e 121 148
e 122 125
e 122 127
e 122 132
e 122 133
e 122 135
e 122 136
e 122 138
e 122 141
e 122 144
e 122 145
e 122 150
e 123 132
e 123 143
e 123 145
e 124 129
e 124 134
e 124 137
e 124 149
e 125 128
e 125 131
e 125 137
e 125 141
e 125 148
e 125 150
e 126 127
e 126 128
e 126 134
e 126 150
e 127 130
e 127 133
e 127 148
e 127 150
e 128 134
e 128 135
e 128 137
e 128 138
e 128 142
e 128 145
e 128 148
e 129 140
e 129 148
e 130 133
e 130 140
e 130 141
e 130 143
e 130 144
e 130 148
e 130 150
e 131 140
e 131 144
e 131 150
e 132 136
e 132 147
e 132 149
e 133 136
e 133 138
e 133 140
e 133 146
e 134 135
e 134 142
e 134 144
e 135 145
e 135 150
e 136 139
e 136 142
e 137 143
e 137 146
e 138 142
e 139 142
e 139 146
e 140 143
e 141 150
e 142 144
e 142 145
e 142 148
e 142 149
e 143 146
e 143 148
e 144 149
e 146 150
e 147 150
e 148 150
